Gurobi Optimizer version 9.1.2 build v9.1.2rc0 (linux64)
Thread count: 36 physical cores, 72 logical processors, using up to 32 threads
Optimize a model with 12 rows, 57 columns and 590 nonzeros
Model fingerprint: 0xf32eec78
Model has 47 quadratic constraints
Coefficient statistics:
  Matrix range     [2e-05, 3e+00]
  QMatrix range    [1e+00, 1e+00]
  QLMatrix range   [1e+00, 1e+00]
  Objective range  [8e-03, 7e-01]
  Bounds range     [1e+00, 1e+00]
  RHS range        [1e+00, 1e+00]
Presolve removed 9 rows and 0 columns

Continuous model is non-convex -- solving as a MIP.

Presolve removed 9 rows and 0 columns
Presolve time: 0.00s
Presolved: 189 rows, 57 columns, 443 nonzeros
Presolved model has 47 bilinear constraint(s)
Variable types: 57 continuous, 0 integer (0 binary)

Root relaxation: objective -1.743721e+00, 44 iterations, 0.00 seconds

    Nodes    |    Current Node    |     Objective Bounds      |     Work
 Expl Unexpl |  Obj  Depth IntInf | Incumbent    BestBd   Gap | It/Node Time

     0     0   -1.74372    0   38          -   -1.74372      -     -    0s
H    0     0                       0.6147548   -1.74372   384%     -    0s
     0     0   -1.64739    0    1    0.61475   -1.64739   368%     -    0s
H    0     0                      -1.6450460   -1.64739  0.14%     -    0s
     0     0     cutoff    0        -1.64505   -1.64505  0.00%     -    0s

Cutting planes:
  RLT: 25
  BQP: 3

Explored 1 nodes (76 simplex iterations) in 0.01 seconds
Thread count was 32 (of 72 available processors)

Solution count 2: -1.64505 0.614755 
No other solutions better than -1.64505

Optimal solution found (tolerance 1.00e-04)
Best objective -1.645045978473e+00, best bound -1.645045978473e+00, gap 0.0000%

User-callback calls 78, time in user-callback 0.00 sec
Gurobi Optimizer version 9.1.2 build v9.1.2rc0 (linux64)
Thread count: 36 physical cores, 72 logical processors, using up to 32 threads
Optimize a model with 12 rows, 55 columns and 570 nonzeros
Model fingerprint: 0x54542aa8
Model has 45 quadratic constraints
Coefficient statistics:
  Matrix range     [9e-05, 1e+00]
  QMatrix range    [1e+00, 1e+00]
  QLMatrix range   [1e+00, 1e+00]
  Objective range  [9e-02, 1e+00]
  Bounds range     [1e+00, 1e+00]
  RHS range        [1e+00, 1e+00]
Presolve removed 9 rows and 0 columns

Continuous model is non-convex -- solving as a MIP.

Presolve removed 9 rows and 0 columns
Presolve time: 0.00s
Presolved: 183 rows, 55 columns, 432 nonzeros
Presolved model has 45 bilinear constraint(s)
Variable types: 55 continuous, 0 integer (0 binary)

Root relaxation: objective -7.371148e+00, 41 iterations, 0.00 seconds

    Nodes    |    Current Node    |     Objective Bounds      |     Work
 Expl Unexpl |  Obj  Depth IntInf | Incumbent    BestBd   Gap | It/Node Time

     0     0   -7.37115    0   10          -   -7.37115      -     -    0s
H    0     0                      -7.0398711   -7.37115  4.71%     -    0s
     0     0   -7.23973    0   33   -7.03987   -7.23973  2.84%     -    0s
H    0     0                      -7.2211039   -7.23973  0.26%     -    0s
     0     0   -7.23313    0    3   -7.22110   -7.23313  0.17%     -    0s
H    0     0                      -7.2330769   -7.23313  0.00%     -    0s

Cutting planes:
  RLT: 4

Explored 1 nodes (103 simplex iterations) in 0.01 seconds
Thread count was 32 (of 72 available processors)

Solution count 3: -7.23308 -7.2211 -7.03987 

Optimal solution found (tolerance 1.00e-04)
Best objective -7.233076908559e+00, best bound -7.233132478876e+00, gap 0.0008%

User-callback calls 78, time in user-callback 0.00 sec



objective value: -7.233076908558608
objective bound: -7.233132478876029
x_opt: [1.0, 1.0, 0.7740281537259349, 0.15304108213856643, 0.0, 1.0, 0.00018533974797204077, 1.0, 1.0, 1.0]
GUROBI solution time: 0.013897180557250977

